set CITIES :=
1 2 3 4 5 6 7 8 9 10 11 12 13 14 15 16 17 18
;

set REQ :=
1 3 4 8 10 13 15 16 18
;

set EDGES :=
1 7
1 11
2 4
2 12
2 14
2 15
3 4
3 8
3 14
4 5
4 6
4 10
4 17
5 11
6 7
6 8
6 13
6 16
7 8
7 14
7 16
8 12
8 16
9 10
9 15
10 11
10 18
11 18
12 17
15 18
16 17
1 2
2 3
5 6
8 9
11 12
12 13
13 14
14 15
15 16
17 18
;

param COST_int :=
1 7 10
1 11 6
2 4 12
2 12 11
2 14 8
2 15 5
3 4 6
3 8 11
3 14 11
4 5 6
4 6 6
4 10 8
4 17 7
5 11 3
6 7 10
6 8 9
6 13 7
6 16 8
7 8 5
7 14 10
7 16 12
8 12 7
8 16 9
9 10 6
9 15 11
10 11 5
10 18 12
11 18 9
12 17 4
15 18 11
16 17 8
1 2 6
2 3 8
5 6 4
8 9 4
11 12 10
12 13 10
13 14 7
14 15 11
15 16 9
17 18 5
;

